c read Graph
c width = 5
c time = 9 ms
c width = 1
c time = 20 ms
c width = 1
c time = 4920 ms
s td 126 2 156
b 1 1 37
b 2 2 39
b 3 3
b 4 4 148
b 5 4 69
b 6 5
b 7 6 150
b 8 7 125
b 9 7 38
b 10 8 126
b 11 8 40
b 12 9 83
b 13 9 97
b 14 10 154
b 15 127 128
b 16 11 128
b 17 55 56
b 18 12 55
b 19 13 129
b 20 13 134
b 21 81 82
b 22 14 82
b 23 41 42
b 24 15 41
b 25 15 74
b 26 16
b 27 17 64
b 28 18
b 29 20 59
b 30 20 136
b 31 20 122
b 32 121 122
b 33 19 121
b 34 21
b 35 22 101
b 36 22 86
b 37 23 102
b 38 23 115
b 39 109 110
b 40 23 110
b 41 30 138
b 42 137 138
b 43 24 137
b 44 119 120
b 45 25 119
b 46 26 79
b 47 27 88
b 48 65 66
b 49 27 66
b 50 113 114
b 51 28 114
b 52 28 75
b 53 29 124
b 54 31
b 55 32 132
b 56 53 54
b 57 32 53
b 58 33
b 59 95 96
b 60 34 95
b 61 34 58
b 62 45 46
b 63 35 46
b 64 36
b 65 43
b 66 44
b 67 47
b 68 48
b 69 49 50
b 70 51
b 71 52
b 72 57
b 73 60
b 74 61
b 75 62
b 76 63
b 77 67
b 78 68
b 79 70
b 80 71
b 81 72
b 82 73
b 83 76
b 84 77
b 85 78
b 86 80
b 87 84
b 88 85
b 89 87
b 90 89
b 91 90
b 92 91 92
b 93 93
b 94 94
b 95 98
b 96 99
b 97 100
b 98 103
b 99 104
b 100 105
b 101 106
b 102 107 108
b 103 111
b 104 112
b 105 116
b 106 117
b 107 118
b 108 123
b 109 130
b 110 131
b 111 133
b 112 135
b 113 139
b 114 140
b 115 141 142
b 116 143
b 117 144
b 118 145
b 119 146
b 120 147
b 121 149
b 122 151
b 123 152
b 124 153
b 125 155
b 126 156
1 2
1 3
1 4
1 6
1 7
1 8
1 10
1 12
1 14
1 15
1 17
1 19
1 21
1 23
1 26
1 27
1 28
1 29
1 34
1 35
1 37
1 41
1 44
1 46
1 47
1 50
1 53
1 54
1 55
1 58
1 59
1 62
1 64
1 65
1 66
1 67
1 68
1 69
1 70
1 71
1 72
1 73
1 74
1 75
1 76
1 77
1 78
1 79
1 80
1 81
1 82
1 83
1 84
1 85
1 86
1 87
1 88
1 89
1 90
1 91
1 92
1 93
1 94
1 95
1 96
1 97
1 98
1 99
1 100
1 101
1 102
1 103
1 104
1 105
1 106
1 107
1 108
1 109
1 110
1 111
1 112
1 113
1 114
1 115
1 116
1 117
1 118
1 119
1 120
1 121
1 122
1 123
1 124
1 125
1 126
4 5
8 9
10 11
12 13
15 16
17 18
19 20
21 22
23 24
24 25
29 30
29 31
31 32
32 33
35 36
37 38
37 40
39 40
41 42
42 43
44 45
47 49
48 49
50 51
51 52
55 57
56 57
59 60
60 61
62 63
